; benchmark generated from python API
(set-info :status unknown)
(declare-datatypes ((RealState 0)) (((RMk1 (rval1 Real)) (RMk2 (rval2 Real)))))
 (assert
 (forall ((?x1 Real) )(exists ((?x2_st RealState) (val!384 Real) )(forall ((?x3 Real) )(exists ((?x4_st RealState) (val!385 Real) )(let ((?x11418 (- 53.0)))
 (let ((?x12491 (rval2 ?x4_st)))
 (let ((?x9229 (* 10.0 ?x12491)))
 (let ((?x8460 (* 91.0 ?x3)))
 (let (($x8002 (= (+ (+ (* (- 35.0) ?x1) (* (- 48.0) (rval2 ?x2_st))) ?x8460) 21.0)))
 (let (($x8850 (and (not $x8002) (> (+ (* (- 47.0) (rval2 ?x2_st)) (* 38.0 ?x12491)) (- 6.0)))))
 (let (($x11967 (or $x8850 (< (+ (+ (* (- 20.0) ?x1) (* (- 49.0) ?x3)) ?x9229) ?x11418))))
 (let ((?x7443 (+ (+ (+ (* 99.0 ?x1) (* 14.0 (rval2 ?x2_st))) (* (- 35.0) ?x3)) (* (- 74.0) ?x12491))))
 (let ((?x3979 (- 8.0)))
 (let ((?x598 (- 2.0)))
 (let ((?x5034 (* ?x598 ?x12491)))
 (let ((?x10580 (* 90.0 ?x3)))
 (let ((?x6998 (+ (+ (+ (* (- 91.0) ?x1) (* (- 79.0) (rval2 ?x2_st))) ?x10580) ?x5034)))
 (let (($x8856 (> (+ (+ (* (- 85.0) ?x1) (* 11.0 (rval2 ?x2_st))) (* 6.0 ?x3)) 57.0)))
 (let (($x3956 (and (<= (+ (* 97.0 (rval2 ?x2_st)) (* (- 32.0) ?x12491)) 5.0) $x8856)))
 (let ((?x3568 (- 19.0)))
 (let ((?x6978 (+ (+ (* (- 15.0) ?x1) (* 12.0 (rval2 ?x2_st))) (* (- 85.0) ?x3))))
 (let ((?x9497 (+ (+ (* (- 81.0) (rval2 ?x2_st)) (* 59.0 ?x3)) (* (- 24.0) ?x12491))))
 (let (($x12486 (and (or (<= ?x9497 80.0) (= (+ ?x6978 ?x5034) ?x3568)) (>= (+ (* (- 35.0) (rval2 ?x2_st)) (* (- 20.0) ?x12491)) (- 98.0)))))
 (let ((?x7489 (+ (+ (* (- 58.0) ?x1) (* 51.0 (rval2 ?x2_st))) (* (- 27.0) ?x3))))
 (let ((?x11372 (- 95.0)))
 (let ((?x5308 (+ (+ (* (- 48.0) ?x1) (* 70.0 (rval2 ?x2_st))) (* (- 17.0) ?x3))))
 (let (($x4691 (or (>= (+ ?x5308 (* 31.0 ?x12491)) ?x11372) (< (+ ?x7489 (* (- 6.0) ?x12491)) 0.0))))
 (let (($x5159 (or (= (+ (* (- 40.0) ?x1) (* (- 20.0) ?x3)) 11.0) (<= (+ (* 77.0 (rval2 ?x2_st)) (* 61.0 ?x12491)) (- 16.0)))))
 (let (($x2044 (and (or (and $x5159 $x4691) $x12486) (or (and $x3956 (and (< ?x6998 ?x3979) (> ?x7443 0.0))) $x11967))))
 (let (($x8699 (>= (+ (+ (* 84.0 ?x1) (* 37.0 (rval2 ?x2_st))) (* 9.0 ?x3)) ?x11372)))
 (let (($x5155 (= (+ (+ (* 10.0 ?x1) (* 9.0 (rval2 ?x2_st))) (* 10.0 ?x3)) 74.0)))
 (let ((?x1791 (- 81.0)))
 (let (($x8401 (= (+ (+ (* 56.0 ?x1) (* (- 68.0) ?x3)) (* 15.0 ?x12491)) ?x1791)))
 (let ((?x2507 (- 98.0)))
 (let ((?x13279 (* ?x2507 ?x3)))
 (let ((?x979 (+ (+ (+ (* 76.0 ?x1) (* (- 1.0) (rval2 ?x2_st))) ?x13279) (* ?x2507 ?x12491))))
 (let (($x6665 (and (not (= (* (- 25.0) ?x12491) (- 85.0))) (and (or (= ?x979 33.0) $x8401) (or (not $x5155) $x8699)))))
 (let ((?x12129 (* 63.0 ?x12491)))
 (let (($x7074 (<= (+ (+ (* (- 78.0) ?x1) (* (- 61.0) (rval2 ?x2_st))) ?x12129) 26.0)))
 (let ((?x9015 (- 14.0)))
 (let ((?x8464 (+ (+ (* (- 18.0) (rval2 ?x2_st)) (* 13.0 ?x3)) (* (- 96.0) ?x12491))))
 (let (($x6883 (and (<= (+ (* (- 66.0) ?x1) (* 99.0 (rval2 ?x2_st))) 65.0) (<= (* 41.0 ?x12491) 86.0))))
 (let ((?x13996 (- 77.0)))
 (let ((?x4260 (- 73.0)))
 (let ((?x5819 (* ?x4260 ?x12491)))
 (let (($x2676 (and (= (+ (* (- 85.0) ?x1) (* (- 7.0) ?x12491)) (- 66.0)) (< (+ (+ (* (- 26.0) ?x1) (* 53.0 (rval2 ?x2_st))) ?x5819) ?x13996))))
 (let (($x3458 (< (+ (+ (* 83.0 ?x1) (* 50.0 (rval2 ?x2_st))) (* 7.0 ?x3)) 0.0)))
 (let ((?x9981 (+ (+ (* ?x1791 ?x1) (* (- 28.0) (rval2 ?x2_st))) (* (- 11.0) ?x3))))
 (let (($x3747 (and (or (<= ?x9981 8.0) $x3458) (= (+ (* 41.0 ?x1) (* 55.0 ?x12491)) (- 12.0)))))
 (let ((?x8318 (- 66.0)))
 (let ((?x3724 (- 21.0)))
 (let ((?x13519 (* ?x3724 ?x12491)))
 (let (($x225 (= (+ (+ (* (- 46.0) ?x1) (* (- 39.0) (rval2 ?x2_st))) ?x13519) ?x8318)))
 (let (($x10152 (and $x225 (< (+ (* (- 18.0) ?x1) (* (- 56.0) (rval2 ?x2_st))) (- 71.0)))))
 (let (($x2195 (or (and $x10152 $x3747) (and $x2676 (and $x6883 (and (>= ?x8464 ?x9015) $x7074))))))
 (let ((?x4610 (* 12.0 ?x3)))
 (let ((?x8273 (+ (+ (+ (* (- 100.0) ?x1) (* (- 6.0) (rval2 ?x2_st))) ?x4610) (* (- 60.0) ?x12491))))
 (let ((?x3703 (- 13.0)))
 (let (($x6574 (= (+ (+ (* (- 51.0) ?x1) (* 52.0 ?x3)) (* 27.0 ?x12491)) ?x3703)))
 (let ((?x13351 (- 56.0)))
 (let ((?x9395 (* 25.0 ?x12491)))
 (let ((?x4982 (+ (+ (+ (* 18.0 ?x1) (* (- 4.0) (rval2 ?x2_st))) (* 13.0 ?x3)) ?x9395)))
 (let ((?x6486 (- 7.0)))
 (let ((?x3210 (- 36.0)))
 (let ((?x5157 (* ?x3210 ?x3)))
 (let (($x725 (and (> (+ (+ (* (- 15.0) ?x1) (* ?x3210 (rval2 ?x2_st))) ?x5157) ?x6486) (>= ?x4982 ?x13351))))
 (let ((?x8329 (- 49.0)))
 (let ((?x2849 (* ?x8329 ?x12491)))
 (let ((?x4885 (+ (+ (+ (* ?x11418 ?x1) (* 67.0 (rval2 ?x2_st))) (* 84.0 ?x3)) ?x2849)))
 (let ((?x12128 (- 25.0)))
 (let ((?x6217 (* ?x12128 ?x12491)))
 (let (($x10852 (or (= (+ (+ (* 58.0 (rval2 ?x2_st)) (* (- 76.0) ?x3)) ?x6217) 51.0) (<= ?x4885 0.0))))
 (let (($x29 (and (or $x10852 (<= (+ (* (- 62.0) ?x1) (* ?x11372 ?x3)) (- 61.0))) (or $x725 (and (not $x6574) (not (= ?x8273 ?x4260)))))))
 (let (($x12180 (< (+ (+ (* 88.0 (rval2 ?x2_st)) (* 2.0 ?x3)) (* (- 31.0) ?x12491)) 46.0)))
 (let ((?x17296 (- 63.0)))
 (let ((?x2377 (+ (+ (+ (* 37.0 ?x1) (* (- 22.0) (rval2 ?x2_st))) (* 89.0 ?x3)) (* (- 9.0) ?x12491))))
 (let (($x12157 (and (< (+ (* (- 100.0) (rval2 ?x2_st)) (* (- 10.0) ?x12491)) (- 35.0)) (= ?x2377 ?x17296))))
 (let ((?x1012 (- 69.0)))
 (let (($x8404 (<= (+ (+ (* 50.0 ?x1) (* 94.0 (rval2 ?x2_st))) (* (- 55.0) ?x12491)) ?x1012)))
 (let ((?x2335 (* 47.0 ?x12491)))
 (let ((?x12631 (- 6.0)))
 (let ((?x2645 (* ?x12631 ?x3)))
 (let (($x1407 (= (+ (+ (+ (* 8.0 ?x1) (* (- 47.0) (rval2 ?x2_st))) ?x2645) ?x2335) ?x3724)))
 (let (($x11803 (or (= (+ (* 53.0 (rval2 ?x2_st)) (* (- 67.0) ?x3)) 23.0) (not $x1407))))
 (let (($x3013 (<= (+ (+ (* 35.0 ?x1) (* 97.0 (rval2 ?x2_st))) (* (- 40.0) ?x12491)) 32.0)))
 (let ((?x13073 (+ (+ (* (- 84.0) (rval2 ?x2_st)) (* 22.0 ?x3)) (* (- 30.0) ?x12491))))
 (let (($x10375 (and (or (and (> ?x13073 0.0) $x3013) $x11803) (and $x8404 (>= (+ (* ?x11418 (rval2 ?x2_st)) (* 94.0 ?x12491)) 0.0)))))
 (let ((?x6878 (+ (+ (+ (* (- 67.0) ?x1) (* 96.0 (rval2 ?x2_st))) (* ?x9015 ?x3)) (* (- 37.0) ?x12491))))
 (let ((?x4697 (+ (+ (+ (* 89.0 ?x1) (* 20.0 (rval2 ?x2_st))) (* (- 26.0) ?x3)) (* 17.0 ?x12491))))
 (let (($x442 (> (+ (+ (* 76.0 (rval2 ?x2_st)) (* 85.0 ?x3)) (* 3.0 ?x12491)) ?x3724)))
 (let (($x813 (or (and $x442 (= ?x4697 0.0)) (and (< ?x6878 0.0) (<= (+ (* 99.0 (rval2 ?x2_st)) ?x2335) 86.0)))))
 (let ((?x355 (- 82.0)))
 (let (($x11250 (<= (+ (+ (* 39.0 ?x1) (* 99.0 ?x3)) (* (- 42.0) ?x12491)) ?x355)))
 (let ((?x4639 (+ (+ (* (- 88.0) (rval2 ?x2_st)) (* 46.0 ?x3)) (* (- 78.0) ?x12491))))
 (let (($x4204 (and (not (= (+ (* 64.0 ?x3) (* (- 39.0) ?x12491)) 3.0)) (= (+ (* 85.0 (rval2 ?x2_st)) (* (- 57.0) ?x12491)) 0.0))))
 (let ((?x4142 (- 33.0)))
 (let ((?x7877 (- 39.0)))
 (let ((?x7337 (* ?x7877 ?x12491)))
 (let ((?x9291 (+ (+ (+ (* 61.0 ?x1) (* 31.0 (rval2 ?x2_st))) (* (- 3.0) ?x3)) ?x7337)))
 (let (($x2470 (or (= ?x9291 ?x4142) (<= (+ (* (- 91.0) (rval2 ?x2_st)) (* (- 89.0) ?x12491)) 0.0))))
 (let ((?x6817 (* 38.0 ?x12491)))
 (let ((?x12358 (+ (+ (+ (* 1.0 ?x1) (* (- 38.0) (rval2 ?x2_st))) (* 15.0 ?x3)) ?x6817)))
 (let (($x10820 (or (= (+ (* 75.0 ?x1) (* ?x3568 ?x12491)) (- 93.0)) (<= ?x12358 0.0))))
 (let (($x2545 (or (and (and $x10820 $x2470) (and (and $x4204 (or (< ?x4639 ?x11372) $x11250)) $x813)) (or $x10375 (or $x12157 $x12180)))))
 (let ((?x4510 (+ (+ (* 30.0 ?x1) (* (- 15.0) (rval2 ?x2_st))) (* (- 80.0) ?x3))))
 (let ((?x8477 (* 86.0 ?x12491)))
 (let ((?x6650 (+ (+ (+ (* 21.0 ?x1) (* (- 100.0) (rval2 ?x2_st))) (* 1.0 ?x3)) ?x8477)))
 (let ((?x2714 (- 34.0)))
 (let (($x10202 (<= (+ (+ (* 46.0 ?x1) (* (- 30.0) (rval2 ?x2_st))) (* ?x13351 ?x12491)) ?x2714)))
 (let ((?x12867 (- 80.0)))
 (let ((?x5006 (- 44.0)))
 (let ((?x9682 (* ?x5006 ?x3)))
 (let ((?x1284 (+ (+ (+ (* (- 4.0) ?x1) (* (- 32.0) (rval2 ?x2_st))) ?x9682) ?x13519)))
 (let (($x6208 (or (and (>= ?x1284 ?x12867) $x10202) (or (>= ?x6650 19.0) (< (+ ?x4510 (* ?x4142 ?x12491)) ?x13996)))))
 (let (($x199 (and (<= (+ (* (- 31.0) ?x3) (* 15.0 ?x12491)) 80.0) (> (+ (+ (* 59.0 ?x1) (* 73.0 ?x3)) (* 55.0 ?x12491)) 0.0))))
 (let ((?x12518 (+ (+ (* (- 55.0) ?x1) (* (- 40.0) (rval2 ?x2_st))) (* (- 35.0) ?x12491))))
 (let ((?x8004 (- 15.0)))
 (let ((?x2505 (+ (+ (+ (* ?x17296 ?x1) (* (- 29.0) (rval2 ?x2_st))) (* 39.0 ?x3)) ?x2849)))
 (let ((?x8438 (- 79.0)))
 (let (($x12687 (<= (+ (+ (* (- 37.0) ?x1) (* 27.0 (rval2 ?x2_st))) (* 49.0 ?x12491)) ?x8438)))
 (let ((?x2416 (- 24.0)))
 (let (($x242 (= (+ (+ (* (- 88.0) ?x1) (* 73.0 ?x3)) (* (- 41.0) ?x12491)) ?x2416)))
 (let (($x9466 (and (not $x242) (<= (+ (* (- 91.0) (rval2 ?x2_st)) (* 72.0 ?x3)) 95.0))))
 (let ((?x11935 (* 61.0 ?x12491)))
 (let ((?x4689 (+ (+ (+ (* 17.0 ?x1) (* ?x8438 (rval2 ?x2_st))) (* (- 20.0) ?x3)) ?x11935)))
 (let (($x2669 (or (< ?x4689 ?x9015) (>= (+ (* (- 74.0) ?x1) (* 84.0 ?x12491)) 10.0))))
 (let ((?x12426 (+ (+ (+ (* (- 1.0) ?x1) (* ?x2507 (rval2 ?x2_st))) ?x13279) (* 87.0 ?x12491))))
 (let (($x11435 (and (< (+ (+ (* (- 41.0) ?x1) (* 62.0 (rval2 ?x2_st))) ?x5819) 0.0) (< ?x12426 0.0))))
 (let (($x9241 (or (or (or $x11435 $x2669) (or $x9466 (and $x12687 (not (= ?x2505 ?x8004))))) (or (and (not (= ?x12518 0.0)) $x199) $x6208))))
 (let ((?x1439 (- 89.0)))
 (let ((?x331 (* ?x1439 ?x12491)))
 (let ((?x7086 (+ (+ (+ (* ?x598 ?x1) (* 7.0 (rval2 ?x2_st))) (* (- 74.0) ?x3)) ?x331)))
 (let ((?x2230 (+ (+ (* (- 74.0) ?x1) (* ?x8318 (rval2 ?x2_st))) (* (- 46.0) ?x3))))
 (let (($x3440 (and (<= (+ (* 17.0 ?x3) (* (- 11.0) ?x12491)) 0.0) (< (+ ?x2230 (* 52.0 ?x12491)) 25.0))))
 (let ((?x11305 (+ (+ (+ (* (- 54.0) ?x1) (* ?x9015 (rval2 ?x2_st))) (* 46.0 ?x3)) (* ?x13996 ?x12491))))
 (let (($x842 (and (< ?x11305 64.0) (> (+ (* ?x7877 ?x1) (* (- 29.0) (rval2 ?x2_st))) 32.0))))
 (let (($x4529 (and (and $x842 (not (= (+ (* 84.0 ?x1) ?x9682) (- 30.0)))) (and $x3440 (or (= ?x7086 36.0) (<= (* 16.0 ?x3) 42.0))))))
 (let (($x4542 (and (and (or $x4529 $x9241) $x2545) (and (and $x29 $x2195) (and $x6665 $x2044)))))
 (let (($x636 (not (= ?x4_st (RMk1 val!385)))))
 (let (($x12990 (not (= ?x2_st (RMk1 val!384)))))
 (and $x12990 $x636 $x4542))))))))))))))))))))))))))))))))))))))))))))))))))))))))))))))))))))))))))))))))))))))))))))))))))))))))))))))))))))))))))))))))))))))))))
 )
 )
 )
 )
(check-sat)
